
Gurobi 12.0.2 (mac64[arm]) logging started Fri Jun 13 16:08:29 2025

Set parameter LogFile to value "/Users/yurunfeng/Documents/GitHub/LRGTS-store-location/result/gurobi/snyder/150nodes/150-0.8-4.log"
Gurobi Optimizer version 12.0.2 build v12.0.2rc0 (mac64[arm] - Darwin 24.5.0 24F74)

CPU model: Apple M4
Thread count: 10 physical cores, 10 logical processors, using up to 10 threads

Non-default parameters:
TimeLimit  1200

Optimize a model with 3510600 rows, 6795450 columns and 32209486 nonzeros
Model fingerprint: 0x63f03a95
Variable types: 3397650 continuous, 3397800 integer (3397800 binary)
Coefficient statistics:
  Matrix range     [2e-01, 1e+00]
  Objective range  [9e+01, 8e+06]
  Bounds range     [1e+00, 1e+00]
  RHS range        [1e+00, 4e+00]
Found heuristic solution: objective 6.624322e+07
Presolve removed 22800 rows and 22650 columns (presolve time = 5s)...
Presolve removed 22800 rows and 22650 columns (presolve time = 10s)...
Presolve removed 45300 rows and 22650 columns (presolve time = 15s)...
Presolve removed 45300 rows and 22650 columns (presolve time = 21s)...
Presolve removed 45300 rows and 22650 columns (presolve time = 25s)...
Presolve removed 45300 rows and 22650 columns (presolve time = 30s)...
Presolve removed 45300 rows and 22650 columns (presolve time = 40s)...
Presolve removed 45300 rows and 22650 columns (presolve time = 45s)...
Presolve removed 45300 rows and 22650 columns (presolve time = 50s)...
Presolve removed 45300 rows and 22650 columns (presolve time = 80s)...
Presolve removed 45300 rows and 22650 columns (presolve time = 80s)...
Presolve removed 45300 rows and 22650 columns (presolve time = 87s)...
Presolve removed 45300 rows and 22650 columns (presolve time = 90s)...
Presolve removed 45300 rows and 22650 columns
Presolve time: 90.57s
Presolved: 3465300 rows, 6772800 columns, 29019036 nonzeros
Variable types: 3375000 continuous, 3397800 integer (3397800 binary)
Deterministic concurrent LP optimizer: primal simplex, dual simplex, and barrier
Showing barrier log only...

Root barrier log...

Elapsed ordering time = 15s
Elapsed ordering time = 15s
Elapsed ordering time = 20s
Elapsed ordering time = 39s
Elapsed ordering time = 40s
Elapsed ordering time = 182s
Elapsed ordering time = 246s
Elapsed ordering time = 314s
Elapsed ordering time = 376s
Ordering time: 376.56s

Barrier performed 0 iterations in 480.58 seconds (299.36 work units)
Barrier solve interrupted - model solved by another algorithm

Concurrent spin time: 353.32s (can be avoided by choosing Method=3)

Solved with dual simplex

Root simplex log...

Iteration    Objective       Primal Inf.    Dual Inf.      Time
   40506    2.4799566e+06   0.000000e+00   0.000000e+00    481s

Root relaxation: objective 2.479957e+06, 40506 iterations, 387.68 seconds (75.41 work units)

    Nodes    |    Current Node    |     Objective Bounds      |     Work
 Expl Unexpl |  Obj  Depth IntInf | Incumbent    BestBd   Gap | It/Node Time

     0     0 2479956.65    0 3747 6.6243e+07 2479956.65  96.3%     -  497s
H    0     0                    4518568.4919 2479956.65  45.1%     -  525s
H    0     0                    3815115.2895 2479956.65  35.0%     -  535s
H    0     0                    3723769.9434 2479956.65  33.4%     -  661s
H    0     0                    3543614.3032 2479956.65  30.0%     -  734s
     0     0 2523942.17    0 6904 3543614.30 2523942.17  28.8%     - 1011s
H    0     0                    3509540.9825 2523944.24  28.1%     - 1122s

Cutting planes:
  Cover: 1
  MIR: 120
  Flow cover: 562
  RLT: 21

Explored 1 nodes (86318 simplex iterations) in 1201.17 seconds (1243.95 work units)
Thread count was 10 (of 10 available processors)

Solution count 6: 3.50954e+06 3.54361e+06 3.72377e+06 ... 6.62432e+07

Time limit reached
Best objective 3.509540982691e+06, best bound 2.523944242656e+06, gap 28.0834%
